500
120 120
1 84 236
2 84 549
3 84 955
4 84 283
5 83 968
6 83 887
7 83 835
8 83 647
9 83 63
10 82 489
11 82 906
12 82 224
13 82 474
14 82 546
15 82 48
16 81 806
17 81 425
18 81 776
19 81 399
20 81 687
21 81 727
22 81 478
23 81 280
24 80 328
25 80 503
26 80 155
27 79 465
28 79 374
29 79 404
30 79 729
31 79 829
32 79 422
33 79 748
34 78 685
35 78 300
36 78 728
37 78 515
38 78 278
39 78 82
40 78 977
41 77 212
42 77 85
43 77 471
44 77 467
45 77 605
46 76 965
47 76 267
48 76 570
49 75 980
50 75 684
51 75 820
52 75 9
53 75 69
54 74 303
55 74 693
56 74 766
57 74 722
58 74 459
59 74 387
60 73 694
61 73 442
62 73 241
63 73 123
64 73 877
65 73 728
66 72 981
67 72 105
68 72 214
69 72 178
70 72 693
71 72 4
72 72 330
73 72 96
74 71 122
75 71 470
76 71 58
77 71 1000
78 71 63
79 71 706
80 71 851
81 71 770
82 71 87
83 71 289
84 71 101
85 70 840
86 70 957
87 70 913
88 70 523
89 70 996
90 70 260
91 70 304
92 70 46
93 70 59
94 70 109
95 70 809
96 70 396
97 70 722
98 70 587
99 69 477
100 69 948
101 69 324
102 69 645
103 69 104
104 69 872
105 69 451
106 68 220
107 68 836
108 68 322
109 68 217
110 68 684
111 68 62
112 68 921
113 68 77
114 67 998
115 67 835
116 67 429
117 67 28
118 67 308
119 67 598
120 67 706
121 67 327
122 67 584
123 67 456
124 67 276
125 66 156
126 66 427
127 66 902
128 66 808
129 66 980
130 66 224
131 66 781
132 65 688
133 65 92
134 65 904
135 65 653
136 65 841
137 65 434
138 65 426
139 65 296
140 64 731
141 64 971
142 64 387
143 64 112
144 63 156
145 63 673
146 63 970
147 63 536
148 63 889
149 63 729
150 63 959
151 63 32
152 63 537
153 63 472
154 62 167
155 62 610
156 62 587
157 62 734
158 62 265
159 62 681
160 61 39
161 61 600
162 61 54
163 61 866
164 61 265
165 61 583
166 61 561
167 61 829
168 61 317
169 60 882
170 60 749
171 60 355
172 60 292
173 60 303
174 60 626
175 60 741
176 60 387
177 59 455
178 59 936
179 59 687
180 59 96
181 59 459
182 59 872
183 59 455
184 59 688
185 58 795
186 58 908
187 58 141
188 58 849
189 58 622
190 58 61
191 57 920
192 57 740
193 57 207
194 57 338
195 57 436
196 57 926
197 57 255
198 57 470
199 57 856
200 57 905
201 57 9
202 56 599
203 56 154
204 56 817
205 56 974
206 56 800
207 56 30
208 56 936
209 55 38
210 55 898
211 55 725
212 55 947
213 55 695
214 55 425
215 55 307
216 55 125
217 54 942
218 54 759
219 54 528
220 54 664
221 53 787
222 53 229
223 53 196
224 53 519
225 53 31
226 52 419
227 52 970
228 52 219
229 52 806
230 52 122
231 52 551
232 51 893
233 51 168
234 51 724
235 50 640
236 50 878
237 50 505
238 50 953
239 50 30
240 50 214
241 49 749
242 49 195
243 49 909
244 49 626
245 49 414
246 49 191
247 49 122
248 49 389
249 49 887
250 48 570
251 48 831
252 48 114
253 48 760
254 48 395
255 48 874
256 48 713
257 48 473
258 47 571
259 47 322
260 47 212
261 47 980
262 47 271
263 47 364
264 47 829
265 47 902
266 47 204
267 47 458
268 47 573
269 47 571
270 47 540
271 47 301
272 46 625
273 46 82
274 46 97
275 46 93
276 46 952
277 46 666
278 46 153
279 46 947
280 46 677
281 45 959
282 45 613
283 45 656
284 45 497
285 45 878
286 45 641
287 45 252
288 44 460
289 44 697
290 44 201
291 44 269
292 44 406
293 44 557
294 44 422
295 43 313
296 43 447
297 43 190
298 43 572
299 43 527
300 43 138
301 43 416
302 42 257
303 42 289
304 42 913
305 42 12
306 42 918
307 42 737
308 42 550
309 41 758
310 41 446
311 41 325
312 41 235
313 41 59
314 41 935
315 41 376
316 40 797
317 40 862
318 40 107
319 40 175
320 39 159
321 39 346
322 39 877
323 39 986
324 39 586
325 39 191
326 39 248
327 38 164
328 38 83
329 38 484
330 38 288
331 37 208
332 37 105
333 37 731
334 37 942
335 37 239
336 37 35
337 37 125
338 37 906
339 37 517
340 37 62
341 37 103
342 36 503
343 36 930
344 36 510
345 36 655
346 36 28
347 36 211
348 36 434
349 35 109
350 35 861
351 35 158
352 35 674
353 35 358
354 35 151
355 35 331
356 35 737
357 34 600
358 34 800
359 34 478
360 34 977
361 34 379
362 34 907
363 34 637
364 34 173
365 33 362
366 33 945
367 33 917
368 33 871
369 33 555
370 32 62
371 32 652
372 32 955
373 32 155
374 32 41
375 32 269
376 32 844
377 32 157
378 31 253
379 31 407
380 31 412
381 31 895
382 31 228
383 31 581
384 31 84
385 31 953
386 31 771
387 31 834
388 31 348
389 30 991
390 30 42
391 30 602
392 30 38
393 30 516
394 30 370
395 30 862
396 30 556
397 29 474
398 29 483
399 29 721
400 29 880
401 29 807
402 28 443
403 28 908
404 28 171
405 28 905
406 28 442
407 27 284
408 27 273
409 27 114
410 27 808
411 26 214
412 26 159
413 26 478
414 26 73
415 26 379
416 26 314
417 26 288
418 26 437
419 25 347
420 25 496
421 25 500
422 25 177
423 25 887
424 25 658
425 24 132
426 24 832
427 24 345
428 24 958
429 23 322
430 23 454
431 23 434
432 23 900
433 23 163
434 23 548
435 22 231
436 22 500
437 22 862
438 22 241
439 21 810
440 21 775
441 21 407
442 21 848
443 21 347
444 21 240
445 20 52
446 20 764
447 20 717
448 20 683
449 20 334
450 20 900
451 20 182
452 20 658
453 20 6
454 20 862
455 20 477
456 19 851
457 19 93
458 19 351
459 19 783
460 18 805
461 18 425
462 18 969
463 18 262
464 18 376
465 18 169
466 17 299
467 17 604
468 17 183
469 17 626
470 17 585
471 16 199
472 16 976
473 16 875
474 16 781
475 16 363
476 16 961
477 16 871
478 16 512
479 16 436
480 16 886
481 15 973
482 15 629
483 15 769
484 15 786
485 15 980
486 15 595
487 14 633
488 14 739
489 14 104
490 13 172
491 13 419
492 13 295
493 13 941
494 13 179
495 13 97
496 13 125
497 12 495
498 12 501
499 12 699
500 12 903
